SECTION Graph
Nodes 512
Edges 2304
E 1 257 1
E 1 129 1
E 1 65 1
E 1 33 1
E 1 17 1
E 1 9 1
E 1 5 1
E 1 3 1
E 1 2 1
E 2 258 1
E 2 130 1
E 2 66 1
E 2 34 1
E 2 18 1
E 2 10 1
E 2 6 1
E 2 4 1
E 3 259 1
E 3 131 1
E 3 67 1
E 3 35 1
E 3 19 1
E 3 11 1
E 3 7 1
E 3 4 1
E 4 260 1
E 4 132 1
E 4 68 1
E 4 36 1
E 4 20 1
E 4 12 1
E 4 8 1
E 5 261 1
E 5 133 1
E 5 69 1
E 5 37 1
E 5 21 1
E 5 13 1
E 5 7 1
E 5 6 1
E 6 262 1
E 6 134 1
E 6 70 1
E 6 38 1
E 6 22 1
E 6 14 1
E 6 8 1
E 7 263 1
E 7 135 1
E 7 71 1
E 7 39 1
E 7 23 1
E 7 15 1
E 7 8 1
E 8 264 1
E 8 136 1
E 8 72 1
E 8 40 1
E 8 24 1
E 8 16 1
E 9 265 1
E 9 137 1
E 9 73 1
E 9 41 1
E 9 25 1
E 9 13 1
E 9 11 1
E 9 10 1
E 10 266 1
E 10 138 1
E 10 74 1
E 10 42 1
E 10 26 1
E 10 14 1
E 10 12 1
E 11 267 1
E 11 139 1
E 11 75 1
E 11 43 1
E 11 27 1
E 11 15 1
E 11 12 1
E 12 268 1
E 12 140 1
E 12 76 1
E 12 44 1
E 12 28 1
E 12 16 1
E 13 269 1
E 13 141 1
E 13 77 1
E 13 45 1
E 13 29 1
E 13 15 1
E 13 14 1
E 14 270 1
E 14 142 1
E 14 78 1
E 14 46 1
E 14 30 1
E 14 16 1
E 15 271 1
E 15 143 1
E 15 79 1
E 15 47 1
E 15 31 1
E 15 16 1
E 16 272 1
E 16 144 1
E 16 80 1
E 16 48 1
E 16 32 1
E 17 273 1
E 17 145 1
E 17 81 1
E 17 49 1
E 17 25 1
E 17 21 1
E 17 19 1
E 17 18 1
E 18 274 1
E 18 146 1
E 18 82 1
E 18 50 1
E 18 26 1
E 18 22 1
E 18 20 1
E 19 275 1
E 19 147 1
E 19 83 1
E 19 51 1
E 19 27 1
E 19 23 1
E 19 20 1
E 20 276 1
E 20 148 1
E 20 84 1
E 20 52 1
E 20 28 1
E 20 24 1
E 21 277 1
E 21 149 1
E 21 85 1
E 21 53 1
E 21 29 1
E 21 23 1
E 21 22 1
E 22 278 1
E 22 150 1
E 22 86 1
E 22 54 1
E 22 30 1
E 22 24 1
E 23 279 1
E 23 151 1
E 23 87 1
E 23 55 1
E 23 31 1
E 23 24 1
E 24 280 1
E 24 152 1
E 24 88 1
E 24 56 1
E 24 32 1
E 25 281 1
E 25 153 1
E 25 89 1
E 25 57 1
E 25 29 1
E 25 27 1
E 25 26 1
E 26 282 1
E 26 154 1
E 26 90 1
E 26 58 1
E 26 30 1
E 26 28 1
E 27 283 1
E 27 155 1
E 27 91 1
E 27 59 1
E 27 31 1
E 27 28 1
E 28 284 1
E 28 156 1
E 28 92 1
E 28 60 1
E 28 32 1
E 29 285 1
E 29 157 1
E 29 93 1
E 29 61 1
E 29 31 1
E 29 30 1
E 30 286 1
E 30 158 1
E 30 94 1
E 30 62 1
E 30 32 1
E 31 287 1
E 31 159 1
E 31 95 1
E 31 63 1
E 31 32 1
E 32 288 1
E 32 160 1
E 32 96 1
E 32 64 1
E 33 289 1
E 33 161 1
E 33 97 1
E 33 49 1
E 33 41 1
E 33 37 1
E 33 35 1
E 33 34 1
E 34 290 1
E 34 162 1
E 34 98 1
E 34 50 1
E 34 42 1
E 34 38 1
E 34 36 1
E 35 291 1
E 35 163 1
E 35 99 1
E 35 51 1
E 35 43 1
E 35 39 1
E 35 36 1
E 36 292 1
E 36 164 1
E 36 100 1
E 36 52 1
E 36 44 1
E 36 40 1
E 37 293 1
E 37 165 1
E 37 101 1
E 37 53 1
E 37 45 1
E 37 39 1
E 37 38 1
E 38 294 1
E 38 166 1
E 38 102 1
E 38 54 1
E 38 46 1
E 38 40 1
E 39 295 1
E 39 167 1
E 39 103 1
E 39 55 1
E 39 47 1
E 39 40 1
E 40 296 1
E 40 168 1
E 40 104 1
E 40 56 1
E 40 48 1
E 41 297 1
E 41 169 1
E 41 105 1
E 41 57 1
E 41 45 1
E 41 43 1
E 41 42 1
E 42 298 1
E 42 170 1
E 42 106 1
E 42 58 1
E 42 46 1
E 42 44 1
E 43 299 1
E 43 171 1
E 43 107 1
E 43 59 1
E 43 47 1
E 43 44 1
E 44 300 1
E 44 172 1
E 44 108 1
E 44 60 1
E 44 48 1
E 45 301 1
E 45 173 1
E 45 109 1
E 45 61 1
E 45 47 1
E 45 46 1
E 46 302 1
E 46 174 1
E 46 110 1
E 46 62 1
E 46 48 1
E 47 303 1
E 47 175 1
E 47 111 1
E 47 63 1
E 47 48 1
E 48 304 1
E 48 176 1
E 48 112 1
E 48 64 1
E 49 305 1
E 49 177 1
E 49 113 1
E 49 57 1
E 49 53 1
E 49 51 1
E 49 50 1
E 50 306 1
E 50 178 1
E 50 114 1
E 50 58 1
E 50 54 1
E 50 52 1
E 51 307 1
E 51 179 1
E 51 115 1
E 51 59 1
E 51 55 1
E 51 52 1
E 52 308 1
E 52 180 1
E 52 116 1
E 52 60 1
E 52 56 1
E 53 309 1
E 53 181 1
E 53 117 1
E 53 61 1
E 53 55 1
E 53 54 1
E 54 310 1
E 54 182 1
E 54 118 1
E 54 62 1
E 54 56 1
E 55 311 1
E 55 183 1
E 55 119 1
E 55 63 1
E 55 56 1
E 56 312 1
E 56 184 1
E 56 120 1
E 56 64 1
E 57 313 1
E 57 185 1
E 57 121 1
E 57 61 1
E 57 59 1
E 57 58 1
E 58 314 1
E 58 186 1
E 58 122 1
E 58 62 1
E 58 60 1
E 59 315 1
E 59 187 1
E 59 123 1
E 59 63 1
E 59 60 1
E 60 316 1
E 60 188 1
E 60 124 1
E 60 64 1
E 61 317 1
E 61 189 1
E 61 125 1
E 61 63 1
E 61 62 1
E 62 318 1
E 62 190 1
E 62 126 1
E 62 64 1
E 63 319 1
E 63 191 1
E 63 127 1
E 63 64 1
E 64 320 1
E 64 192 1
E 64 128 1
E 65 321 1
E 65 193 1
E 65 97 1
E 65 81 1
E 65 73 1
E 65 69 1
E 65 67 1
E 65 66 1
E 66 322 1
E 66 194 1
E 66 98 1
E 66 82 1
E 66 74 1
E 66 70 1
E 66 68 1
E 67 323 1
E 67 195 1
E 67 99 1
E 67 83 1
E 67 75 1
E 67 71 1
E 67 68 1
E 68 324 1
E 68 196 1
E 68 100 1
E 68 84 1
E 68 76 1
E 68 72 1
E 69 325 1
E 69 197 1
E 69 101 1
E 69 85 1
E 69 77 1
E 69 71 1
E 69 70 1
E 70 326 1
E 70 198 1
E 70 102 1
E 70 86 1
E 70 78 1
E 70 72 1
E 71 327 1
E 71 199 1
E 71 103 1
E 71 87 1
E 71 79 1
E 71 72 1
E 72 328 1
E 72 200 1
E 72 104 1
E 72 88 1
E 72 80 1
E 73 329 1
E 73 201 1
E 73 105 1
E 73 89 1
E 73 77 1
E 73 75 1
E 73 74 1
E 74 330 1
E 74 202 1
E 74 106 1
E 74 90 1
E 74 78 1
E 74 76 1
E 75 331 1
E 75 203 1
E 75 107 1
E 75 91 1
E 75 79 1
E 75 76 1
E 76 332 1
E 76 204 1
E 76 108 1
E 76 92 1
E 76 80 1
E 77 333 1
E 77 205 1
E 77 109 1
E 77 93 1
E 77 79 1
E 77 78 1
E 78 334 1
E 78 206 1
E 78 110 1
E 78 94 1
E 78 80 1
E 79 335 1
E 79 207 1
E 79 111 1
E 79 95 1
E 79 80 1
E 80 336 1
E 80 208 1
E 80 112 1
E 80 96 1
E 81 337 1
E 81 209 1
E 81 113 1
E 81 89 1
E 81 85 1
E 81 83 1
E 81 82 1
E 82 338 1
E 82 210 1
E 82 114 1
E 82 90 1
E 82 86 1
E 82 84 1
E 83 339 1
E 83 211 1
E 83 115 1
E 83 91 1
E 83 87 1
E 83 84 1
E 84 340 1
E 84 212 1
E 84 116 1
E 84 92 1
E 84 88 1
E 85 341 1
E 85 213 1
E 85 117 1
E 85 93 1
E 85 87 1
E 85 86 1
E 86 342 1
E 86 214 1
E 86 118 1
E 86 94 1
E 86 88 1
E 87 343 1
E 87 215 1
E 87 119 1
E 87 95 1
E 87 88 1
E 88 344 1
E 88 216 1
E 88 120 1
E 88 96 1
E 89 345 1
E 89 217 1
E 89 121 1
E 89 93 1
E 89 91 1
E 89 90 1
E 90 346 1
E 90 218 1
E 90 122 1
E 90 94 1
E 90 92 1
E 91 347 1
E 91 219 1
E 91 123 1
E 91 95 1
E 91 92 1
E 92 348 1
E 92 220 1
E 92 124 1
E 92 96 1
E 93 349 1
E 93 221 1
E 93 125 1
E 93 95 1
E 93 94 1
E 94 350 1
E 94 222 1
E 94 126 1
E 94 96 1
E 95 351 1
E 95 223 1
E 95 127 1
E 95 96 1
E 96 352 1
E 96 224 1
E 96 128 1
E 97 353 1
E 97 225 1
E 97 113 1
E 97 105 1
E 97 101 1
E 97 99 1
E 97 98 1
E 98 354 1
E 98 226 1
E 98 114 1
E 98 106 1
E 98 102 1
E 98 100 1
E 99 355 1
E 99 227 1
E 99 115 1
E 99 107 1
E 99 103 1
E 99 100 1
E 100 356 1
E 100 228 1
E 100 116 1
E 100 108 1
E 100 104 1
E 101 357 1
E 101 229 1
E 101 117 1
E 101 109 1
E 101 103 1
E 101 102 1
E 102 358 1
E 102 230 1
E 102 118 1
E 102 110 1
E 102 104 1
E 103 359 1
E 103 231 1
E 103 119 1
E 103 111 1
E 103 104 1
E 104 360 1
E 104 232 1
E 104 120 1
E 104 112 1
E 105 361 1
E 105 233 1
E 105 121 1
E 105 109 1
E 105 107 1
E 105 106 1
E 106 362 1
E 106 234 1
E 106 122 1
E 106 110 1
E 106 108 1
E 107 363 1
E 107 235 1
E 107 123 1
E 107 111 1
E 107 108 1
E 108 364 1
E 108 236 1
E 108 124 1
E 108 112 1
E 109 365 1
E 109 237 1
E 109 125 1
E 109 111 1
E 109 110 1
E 110 366 1
E 110 238 1
E 110 126 1
E 110 112 1
E 111 367 1
E 111 239 1
E 111 127 1
E 111 112 1
E 112 368 1
E 112 240 1
E 112 128 1
E 113 369 1
E 113 241 1
E 113 121 1
E 113 117 1
E 113 115 1
E 113 114 1
E 114 370 1
E 114 242 1
E 114 122 1
E 114 118 1
E 114 116 1
E 115 371 1
E 115 243 1
E 115 123 1
E 115 119 1
E 115 116 1
E 116 372 1
E 116 244 1
E 116 124 1
E 116 120 1
E 117 373 1
E 117 245 1
E 117 125 1
E 117 119 1
E 117 118 1
E 118 374 1
E 118 246 1
E 118 126 1
E 118 120 1
E 119 375 1
E 119 247 1
E 119 127 1
E 119 120 1
E 120 376 1
E 120 248 1
E 120 128 1
E 121 377 1
E 121 249 1
E 121 125 1
E 121 123 1
E 121 122 1
E 122 378 1
E 122 250 1
E 122 126 1
E 122 124 1
E 123 379 1
E 123 251 1
E 123 127 1
E 123 124 1
E 124 380 1
E 124 252 1
E 124 128 1
E 125 381 1
E 125 253 1
E 125 127 1
E 125 126 1
E 126 382 1
E 126 254 1
E 126 128 1
E 127 383 1
E 127 255 1
E 127 128 1
E 128 384 1
E 128 256 1
E 129 385 1
E 129 193 1
E 129 161 1
E 129 145 1
E 129 137 1
E 129 133 1
E 129 131 1
E 129 130 1
E 130 386 1
E 130 194 1
E 130 162 1
E 130 146 1
E 130 138 1
E 130 134 1
E 130 132 1
E 131 387 1
E 131 195 1
E 131 163 1
E 131 147 1
E 131 139 1
E 131 135 1
E 131 132 1
E 132 388 1
E 132 196 1
E 132 164 1
E 132 148 1
E 132 140 1
E 132 136 1
E 133 389 1
E 133 197 1
E 133 165 1
E 133 149 1
E 133 141 1
E 133 135 1
E 133 134 1
E 134 390 1
E 134 198 1
E 134 166 1
E 134 150 1
E 134 142 1
E 134 136 1
E 135 391 1
E 135 199 1
E 135 167 1
E 135 151 1
E 135 143 1
E 135 136 1
E 136 392 1
E 136 200 1
E 136 168 1
E 136 152 1
E 136 144 1
E 137 393 1
E 137 201 1
E 137 169 1
E 137 153 1
E 137 141 1
E 137 139 1
E 137 138 1
E 138 394 1
E 138 202 1
E 138 170 1
E 138 154 1
E 138 142 1
E 138 140 1
E 139 395 1
E 139 203 1
E 139 171 1
E 139 155 1
E 139 143 1
E 139 140 1
E 140 396 1
E 140 204 1
E 140 172 1
E 140 156 1
E 140 144 1
E 141 397 1
E 141 205 1
E 141 173 1
E 141 157 1
E 141 143 1
E 141 142 1
E 142 398 1
E 142 206 1
E 142 174 1
E 142 158 1
E 142 144 1
E 143 399 1
E 143 207 1
E 143 175 1
E 143 159 1
E 143 144 1
E 144 400 1
E 144 208 1
E 144 176 1
E 144 160 1
E 145 401 1
E 145 209 1
E 145 177 1
E 145 153 1
E 145 149 1
E 145 147 1
E 145 146 1
E 146 402 1
E 146 210 1
E 146 178 1
E 146 154 1
E 146 150 1
E 146 148 1
E 147 403 1
E 147 211 1
E 147 179 1
E 147 155 1
E 147 151 1
E 147 148 1
E 148 404 1
E 148 212 1
E 148 180 1
E 148 156 1
E 148 152 1
E 149 405 1
E 149 213 1
E 149 181 1
E 149 157 1
E 149 151 1
E 149 150 1
E 150 406 1
E 150 214 1
E 150 182 1
E 150 158 1
E 150 152 1
E 151 407 1
E 151 215 1
E 151 183 1
E 151 159 1
E 151 152 1
E 152 408 1
E 152 216 1
E 152 184 1
E 152 160 1
E 153 409 1
E 153 217 1
E 153 185 1
E 153 157 1
E 153 155 1
E 153 154 1
E 154 410 1
E 154 218 1
E 154 186 1
E 154 158 1
E 154 156 1
E 155 411 1
E 155 219 1
E 155 187 1
E 155 159 1
E 155 156 1
E 156 412 1
E 156 220 1
E 156 188 1
E 156 160 1
E 157 413 1
E 157 221 1
E 157 189 1
E 157 159 1
E 157 158 1
E 158 414 1
E 158 222 1
E 158 190 1
E 158 160 1
E 159 415 1
E 159 223 1
E 159 191 1
E 159 160 1
E 160 416 1
E 160 224 1
E 160 192 1
E 161 417 1
E 161 225 1
E 161 177 1
E 161 169 1
E 161 165 1
E 161 163 1
E 161 162 1
E 162 418 1
E 162 226 1
E 162 178 1
E 162 170 1
E 162 166 1
E 162 164 1
E 163 419 1
E 163 227 1
E 163 179 1
E 163 171 1
E 163 167 1
E 163 164 1
E 164 420 1
E 164 228 1
E 164 180 1
E 164 172 1
E 164 168 1
E 165 421 1
E 165 229 1
E 165 181 1
E 165 173 1
E 165 167 1
E 165 166 1
E 166 422 1
E 166 230 1
E 166 182 1
E 166 174 1
E 166 168 1
E 167 423 1
E 167 231 1
E 167 183 1
E 167 175 1
E 167 168 1
E 168 424 1
E 168 232 1
E 168 184 1
E 168 176 1
E 169 425 1
E 169 233 1
E 169 185 1
E 169 173 1
E 169 171 1
E 169 170 1
E 170 426 1
E 170 234 1
E 170 186 1
E 170 174 1
E 170 172 1
E 171 427 1
E 171 235 1
E 171 187 1
E 171 175 1
E 171 172 1
E 172 428 1
E 172 236 1
E 172 188 1
E 172 176 1
E 173 429 1
E 173 237 1
E 173 189 1
E 173 175 1
E 173 174 1
E 174 430 1
E 174 238 1
E 174 190 1
E 174 176 1
E 175 431 1
E 175 239 1
E 175 191 1
E 175 176 1
E 176 432 1
E 176 240 1
E 176 192 1
E 177 433 1
E 177 241 1
E 177 185 1
E 177 181 1
E 177 179 1
E 177 178 1
E 178 434 1
E 178 242 1
E 178 186 1
E 178 182 1
E 178 180 1
E 179 435 1
E 179 243 1
E 179 187 1
E 179 183 1
E 179 180 1
E 180 436 1
E 180 244 1
E 180 188 1
E 180 184 1
E 181 437 1
E 181 245 1
E 181 189 1
E 181 183 1
E 181 182 1
E 182 438 1
E 182 246 1
E 182 190 1
E 182 184 1
E 183 439 1
E 183 247 1
E 183 191 1
E 183 184 1
E 184 440 1
E 184 248 1
E 184 192 1
E 185 441 1
E 185 249 1
E 185 189 1
E 185 187 1
E 185 186 1
E 186 442 1
E 186 250 1
E 186 190 1
E 186 188 1
E 187 443 1
E 187 251 1
E 187 191 1
E 187 188 1
E 188 444 1
E 188 252 1
E 188 192 1
E 189 445 1
E 189 253 1
E 189 191 1
E 189 190 1
E 190 446 1
E 190 254 1
E 190 192 1
E 191 447 1
E 191 255 1
E 191 192 1
E 192 448 1
E 192 256 1
E 193 449 1
E 193 225 1
E 193 209 1
E 193 201 1
E 193 197 1
E 193 195 1
E 193 194 1
E 194 450 1
E 194 226 1
E 194 210 1
E 194 202 1
E 194 198 1
E 194 196 1
E 195 451 1
E 195 227 1
E 195 211 1
E 195 203 1
E 195 199 1
E 195 196 1
E 196 452 1
E 196 228 1
E 196 212 1
E 196 204 1
E 196 200 1
E 197 453 1
E 197 229 1
E 197 213 1
E 197 205 1
E 197 199 1
E 197 198 1
E 198 454 1
E 198 230 1
E 198 214 1
E 198 206 1
E 198 200 1
E 199 455 1
E 199 231 1
E 199 215 1
E 199 207 1
E 199 200 1
E 200 456 1
E 200 232 1
E 200 216 1
E 200 208 1
E 201 457 1
E 201 233 1
E 201 217 1
E 201 205 1
E 201 203 1
E 201 202 1
E 202 458 1
E 202 234 1
E 202 218 1
E 202 206 1
E 202 204 1
E 203 459 1
E 203 235 1
E 203 219 1
E 203 207 1
E 203 204 1
E 204 460 1
E 204 236 1
E 204 220 1
E 204 208 1
E 205 461 1
E 205 237 1
E 205 221 1
E 205 207 1
E 205 206 1
E 206 462 1
E 206 238 1
E 206 222 1
E 206 208 1
E 207 463 1
E 207 239 1
E 207 223 1
E 207 208 1
E 208 464 1
E 208 240 1
E 208 224 1
E 209 465 1
E 209 241 1
E 209 217 1
E 209 213 1
E 209 211 1
E 209 210 1
E 210 466 1
E 210 242 1
E 210 218 1
E 210 214 1
E 210 212 1
E 211 467 1
E 211 243 1
E 211 219 1
E 211 215 1
E 211 212 1
E 212 468 1
E 212 244 1
E 212 220 1
E 212 216 1
E 213 469 1
E 213 245 1
E 213 221 1
E 213 215 1
E 213 214 1
E 214 470 1
E 214 246 1
E 214 222 1
E 214 216 1
E 215 471 1
E 215 247 1
E 215 223 1
E 215 216 1
E 216 472 1
E 216 248 1
E 216 224 1
E 217 473 1
E 217 249 1
E 217 221 1
E 217 219 1
E 217 218 1
E 218 474 1
E 218 250 1
E 218 222 1
E 218 220 1
E 219 475 1
E 219 251 1
E 219 223 1
E 219 220 1
E 220 476 1
E 220 252 1
E 220 224 1
E 221 477 1
E 221 253 1
E 221 223 1
E 221 222 1
E 222 478 1
E 222 254 1
E 222 224 1
E 223 479 1
E 223 255 1
E 223 224 1
E 224 480 1
E 224 256 1
E 225 481 1
E 225 241 1
E 225 233 1
E 225 229 1
E 225 227 1
E 225 226 1
E 226 482 1
E 226 242 1
E 226 234 1
E 226 230 1
E 226 228 1
E 227 483 1
E 227 243 1
E 227 235 1
E 227 231 1
E 227 228 1
E 228 484 1
E 228 244 1
E 228 236 1
E 228 232 1
E 229 485 1
E 229 245 1
E 229 237 1
E 229 231 1
E 229 230 1
E 230 486 1
E 230 246 1
E 230 238 1
E 230 232 1
E 231 487 1
E 231 247 1
E 231 239 1
E 231 232 1
E 232 488 1
E 232 248 1
E 232 240 1
E 233 489 1
E 233 249 1
E 233 237 1
E 233 235 1
E 233 234 1
E 234 490 1
E 234 250 1
E 234 238 1
E 234 236 1
E 235 491 1
E 235 251 1
E 235 239 1
E 235 236 1
E 236 492 1
E 236 252 1
E 236 240 1
E 237 493 1
E 237 253 1
E 237 239 1
E 237 238 1
E 238 494 1
E 238 254 1
E 238 240 1
E 239 495 1
E 239 255 1
E 239 240 1
E 240 496 1
E 240 256 1
E 241 497 1
E 241 249 1
E 241 245 1
E 241 243 1
E 241 242 1
E 242 498 1
E 242 250 1
E 242 246 1
E 242 244 1
E 243 499 1
E 243 251 1
E 243 247 1
E 243 244 1
E 244 500 1
E 244 252 1
E 244 248 1
E 245 501 1
E 245 253 1
E 245 247 1
E 245 246 1
E 246 502 1
E 246 254 1
E 246 248 1
E 247 503 1
E 247 255 1
E 247 248 1
E 248 504 1
E 248 256 1
E 249 505 1
E 249 253 1
E 249 251 1
E 249 250 1
E 250 506 1
E 250 254 1
E 250 252 1
E 251 507 1
E 251 255 1
E 251 252 1
E 252 508 1
E 252 256 1
E 253 509 1
E 253 255 1
E 253 254 1
E 254 510 1
E 254 256 1
E 255 511 1
E 255 256 1
E 256 512 1
E 257 385 1
E 257 321 1
E 257 289 1
E 257 273 1
E 257 265 1
E 257 261 1
E 257 259 1
E 257 258 1
E 258 386 1
E 258 322 1
E 258 290 1
E 258 274 1
E 258 266 1
E 258 262 1
E 258 260 1
E 259 387 1
E 259 323 1
E 259 291 1
E 259 275 1
E 259 267 1
E 259 263 1
E 259 260 1
E 260 388 1
E 260 324 1
E 260 292 1
E 260 276 1
E 260 268 1
E 260 264 1
E 261 389 1
E 261 325 1
E 261 293 1
E 261 277 1
E 261 269 1
E 261 263 1
E 261 262 1
E 262 390 1
E 262 326 1
E 262 294 1
E 262 278 1
E 262 270 1
E 262 264 1
E 263 391 1
E 263 327 1
E 263 295 1
E 263 279 1
E 263 271 1
E 263 264 1
E 264 392 1
E 264 328 1
E 264 296 1
E 264 280 1
E 264 272 1
E 265 393 1
E 265 329 1
E 265 297 1
E 265 281 1
E 265 269 1
E 265 267 1
E 265 266 1
E 266 394 1
E 266 330 1
E 266 298 1
E 266 282 1
E 266 270 1
E 266 268 1
E 267 395 1
E 267 331 1
E 267 299 1
E 267 283 1
E 267 271 1
E 267 268 1
E 268 396 1
E 268 332 1
E 268 300 1
E 268 284 1
E 268 272 1
E 269 397 1
E 269 333 1
E 269 301 1
E 269 285 1
E 269 271 1
E 269 270 1
E 270 398 1
E 270 334 1
E 270 302 1
E 270 286 1
E 270 272 1
E 271 399 1
E 271 335 1
E 271 303 1
E 271 287 1
E 271 272 1
E 272 400 1
E 272 336 1
E 272 304 1
E 272 288 1
E 273 401 1
E 273 337 1
E 273 305 1
E 273 281 1
E 273 277 1
E 273 275 1
E 273 274 1
E 274 402 1
E 274 338 1
E 274 306 1
E 274 282 1
E 274 278 1
E 274 276 1
E 275 403 1
E 275 339 1
E 275 307 1
E 275 283 1
E 275 279 1
E 275 276 1
E 276 404 1
E 276 340 1
E 276 308 1
E 276 284 1
E 276 280 1
E 277 405 1
E 277 341 1
E 277 309 1
E 277 285 1
E 277 279 1
E 277 278 1
E 278 406 1
E 278 342 1
E 278 310 1
E 278 286 1
E 278 280 1
E 279 407 1
E 279 343 1
E 279 311 1
E 279 287 1
E 279 280 1
E 280 408 1
E 280 344 1
E 280 312 1
E 280 288 1
E 281 409 1
E 281 345 1
E 281 313 1
E 281 285 1
E 281 283 1
E 281 282 1
E 282 410 1
E 282 346 1
E 282 314 1
E 282 286 1
E 282 284 1
E 283 411 1
E 283 347 1
E 283 315 1
E 283 287 1
E 283 284 1
E 284 412 1
E 284 348 1
E 284 316 1
E 284 288 1
E 285 413 1
E 285 349 1
E 285 317 1
E 285 287 1
E 285 286 1
E 286 414 1
E 286 350 1
E 286 318 1
E 286 288 1
E 287 415 1
E 287 351 1
E 287 319 1
E 287 288 1
E 288 416 1
E 288 352 1
E 288 320 1
E 289 417 1
E 289 353 1
E 289 305 1
E 289 297 1
E 289 293 1
E 289 291 1
E 289 290 1
E 290 418 1
E 290 354 1
E 290 306 1
E 290 298 1
E 290 294 1
E 290 292 1
E 291 419 1
E 291 355 1
E 291 307 1
E 291 299 1
E 291 295 1
E 291 292 1
E 292 420 1
E 292 356 1
E 292 308 1
E 292 300 1
E 292 296 1
E 293 421 1
E 293 357 1
E 293 309 1
E 293 301 1
E 293 295 1
E 293 294 1
E 294 422 1
E 294 358 1
E 294 310 1
E 294 302 1
E 294 296 1
E 295 423 1
E 295 359 1
E 295 311 1
E 295 303 1
E 295 296 1
E 296 424 1
E 296 360 1
E 296 312 1
E 296 304 1
E 297 425 1
E 297 361 1
E 297 313 1
E 297 301 1
E 297 299 1
E 297 298 1
E 298 426 1
E 298 362 1
E 298 314 1
E 298 302 1
E 298 300 1
E 299 427 1
E 299 363 1
E 299 315 1
E 299 303 1
E 299 300 1
E 300 428 1
E 300 364 1
E 300 316 1
E 300 304 1
E 301 429 1
E 301 365 1
E 301 317 1
E 301 303 1
E 301 302 1
E 302 430 1
E 302 366 1
E 302 318 1
E 302 304 1
E 303 431 1
E 303 367 1
E 303 319 1
E 303 304 1
E 304 432 1
E 304 368 1
E 304 320 1
E 305 433 1
E 305 369 1
E 305 313 1
E 305 309 1
E 305 307 1
E 305 306 1
E 306 434 1
E 306 370 1
E 306 314 1
E 306 310 1
E 306 308 1
E 307 435 1
E 307 371 1
E 307 315 1
E 307 311 1
E 307 308 1
E 308 436 1
E 308 372 1
E 308 316 1
E 308 312 1
E 309 437 1
E 309 373 1
E 309 317 1
E 309 311 1
E 309 310 1
E 310 438 1
E 310 374 1
E 310 318 1
E 310 312 1
E 311 439 1
E 311 375 1
E 311 319 1
E 311 312 1
E 312 440 1
E 312 376 1
E 312 320 1
E 313 441 1
E 313 377 1
E 313 317 1
E 313 315 1
E 313 314 1
E 314 442 1
E 314 378 1
E 314 318 1
E 314 316 1
E 315 443 1
E 315 379 1
E 315 319 1
E 315 316 1
E 316 444 1
E 316 380 1
E 316 320 1
E 317 445 1
E 317 381 1
E 317 319 1
E 317 318 1
E 318 446 1
E 318 382 1
E 318 320 1
E 319 447 1
E 319 383 1
E 319 320 1
E 320 448 1
E 320 384 1
E 321 449 1
E 321 353 1
E 321 337 1
E 321 329 1
E 321 325 1
E 321 323 1
E 321 322 1
E 322 450 1
E 322 354 1
E 322 338 1
E 322 330 1
E 322 326 1
E 322 324 1
E 323 451 1
E 323 355 1
E 323 339 1
E 323 331 1
E 323 327 1
E 323 324 1
E 324 452 1
E 324 356 1
E 324 340 1
E 324 332 1
E 324 328 1
E 325 453 1
E 325 357 1
E 325 341 1
E 325 333 1
E 325 327 1
E 325 326 1
E 326 454 1
E 326 358 1
E 326 342 1
E 326 334 1
E 326 328 1
E 327 455 1
E 327 359 1
E 327 343 1
E 327 335 1
E 327 328 1
E 328 456 1
E 328 360 1
E 328 344 1
E 328 336 1
E 329 457 1
E 329 361 1
E 329 345 1
E 329 333 1
E 329 331 1
E 329 330 1
E 330 458 1
E 330 362 1
E 330 346 1
E 330 334 1
E 330 332 1
E 331 459 1
E 331 363 1
E 331 347 1
E 331 335 1
E 331 332 1
E 332 460 1
E 332 364 1
E 332 348 1
E 332 336 1
E 333 461 1
E 333 365 1
E 333 349 1
E 333 335 1
E 333 334 1
E 334 462 1
E 334 366 1
E 334 350 1
E 334 336 1
E 335 463 1
E 335 367 1
E 335 351 1
E 335 336 1
E 336 464 1
E 336 368 1
E 336 352 1
E 337 465 1
E 337 369 1
E 337 345 1
E 337 341 1
E 337 339 1
E 337 338 1
E 338 466 1
E 338 370 1
E 338 346 1
E 338 342 1
E 338 340 1
E 339 467 1
E 339 371 1
E 339 347 1
E 339 343 1
E 339 340 1
E 340 468 1
E 340 372 1
E 340 348 1
E 340 344 1
E 341 469 1
E 341 373 1
E 341 349 1
E 341 343 1
E 341 342 1
E 342 470 1
E 342 374 1
E 342 350 1
E 342 344 1
E 343 471 1
E 343 375 1
E 343 351 1
E 343 344 1
E 344 472 1
E 344 376 1
E 344 352 1
E 345 473 1
E 345 377 1
E 345 349 1
E 345 347 1
E 345 346 1
E 346 474 1
E 346 378 1
E 346 350 1
E 346 348 1
E 347 475 1
E 347 379 1
E 347 351 1
E 347 348 1
E 348 476 1
E 348 380 1
E 348 352 1
E 349 477 1
E 349 381 1
E 349 351 1
E 349 350 1
E 350 478 1
E 350 382 1
E 350 352 1
E 351 479 1
E 351 383 1
E 351 352 1
E 352 480 1
E 352 384 1
E 353 481 1
E 353 369 1
E 353 361 1
E 353 357 1
E 353 355 1
E 353 354 1
E 354 482 1
E 354 370 1
E 354 362 1
E 354 358 1
E 354 356 1
E 355 483 1
E 355 371 1
E 355 363 1
E 355 359 1
E 355 356 1
E 356 484 1
E 356 372 1
E 356 364 1
E 356 360 1
E 357 485 1
E 357 373 1
E 357 365 1
E 357 359 1
E 357 358 1
E 358 486 1
E 358 374 1
E 358 366 1
E 358 360 1
E 359 487 1
E 359 375 1
E 359 367 1
E 359 360 1
E 360 488 1
E 360 376 1
E 360 368 1
E 361 489 1
E 361 377 1
E 361 365 1
E 361 363 1
E 361 362 1
E 362 490 1
E 362 378 1
E 362 366 1
E 362 364 1
E 363 491 1
E 363 379 1
E 363 367 1
E 363 364 1
E 364 492 1
E 364 380 1
E 364 368 1
E 365 493 1
E 365 381 1
E 365 367 1
E 365 366 1
E 366 494 1
E 366 382 1
E 366 368 1
E 367 495 1
E 367 383 1
E 367 368 1
E 368 496 1
E 368 384 1
E 369 497 1
E 369 377 1
E 369 373 1
E 369 371 1
E 369 370 1
E 370 498 1
E 370 378 1
E 370 374 1
E 370 372 1
E 371 499 1
E 371 379 1
E 371 375 1
E 371 372 1
E 372 500 1
E 372 380 1
E 372 376 1
E 373 501 1
E 373 381 1
E 373 375 1
E 373 374 1
E 374 502 1
E 374 382 1
E 374 376 1
E 375 503 1
E 375 383 1
E 375 376 1
E 376 504 1
E 376 384 1
E 377 505 1
E 377 381 1
E 377 379 1
E 377 378 1
E 378 506 1
E 378 382 1
E 378 380 1
E 379 507 1
E 379 383 1
E 379 380 1
E 380 508 1
E 380 384 1
E 381 509 1
E 381 383 1
E 381 382 1
E 382 510 1
E 382 384 1
E 383 511 1
E 383 384 1
E 384 512 1
E 385 449 1
E 385 417 1
E 385 401 1
E 385 393 1
E 385 389 1
E 385 387 1
E 385 386 1
E 386 450 1
E 386 418 1
E 386 402 1
E 386 394 1
E 386 390 1
E 386 388 1
E 387 451 1
E 387 419 1
E 387 403 1
E 387 395 1
E 387 391 1
E 387 388 1
E 388 452 1
E 388 420 1
E 388 404 1
E 388 396 1
E 388 392 1
E 389 453 1
E 389 421 1
E 389 405 1
E 389 397 1
E 389 391 1
E 389 390 1
E 390 454 1
E 390 422 1
E 390 406 1
E 390 398 1
E 390 392 1
E 391 455 1
E 391 423 1
E 391 407 1
E 391 399 1
E 391 392 1
E 392 456 1
E 392 424 1
E 392 408 1
E 392 400 1
E 393 457 1
E 393 425 1
E 393 409 1
E 393 397 1
E 393 395 1
E 393 394 1
E 394 458 1
E 394 426 1
E 394 410 1
E 394 398 1
E 394 396 1
E 395 459 1
E 395 427 1
E 395 411 1
E 395 399 1
E 395 396 1
E 396 460 1
E 396 428 1
E 396 412 1
E 396 400 1
E 397 461 1
E 397 429 1
E 397 413 1
E 397 399 1
E 397 398 1
E 398 462 1
E 398 430 1
E 398 414 1
E 398 400 1
E 399 463 1
E 399 431 1
E 399 415 1
E 399 400 1
E 400 464 1
E 400 432 1
E 400 416 1
E 401 465 1
E 401 433 1
E 401 409 1
E 401 405 1
E 401 403 1
E 401 402 1
E 402 466 1
E 402 434 1
E 402 410 1
E 402 406 1
E 402 404 1
E 403 467 1
E 403 435 1
E 403 411 1
E 403 407 1
E 403 404 1
E 404 468 1
E 404 436 1
E 404 412 1
E 404 408 1
E 405 469 1
E 405 437 1
E 405 413 1
E 405 407 1
E 405 406 1
E 406 470 1
E 406 438 1
E 406 414 1
E 406 408 1
E 407 471 1
E 407 439 1
E 407 415 1
E 407 408 1
E 408 472 1
E 408 440 1
E 408 416 1
E 409 473 1
E 409 441 1
E 409 413 1
E 409 411 1
E 409 410 1
E 410 474 1
E 410 442 1
E 410 414 1
E 410 412 1
E 411 475 1
E 411 443 1
E 411 415 1
E 411 412 1
E 412 476 1
E 412 444 1
E 412 416 1
E 413 477 1
E 413 445 1
E 413 415 1
E 413 414 1
E 414 478 1
E 414 446 1
E 414 416 1
E 415 479 1
E 415 447 1
E 415 416 1
E 416 480 1
E 416 448 1
E 417 481 1
E 417 433 1
E 417 425 1
E 417 421 1
E 417 419 1
E 417 418 1
E 418 482 1
E 418 434 1
E 418 426 1
E 418 422 1
E 418 420 1
E 419 483 1
E 419 435 1
E 419 427 1
E 419 423 1
E 419 420 1
E 420 484 1
E 420 436 1
E 420 428 1
E 420 424 1
E 421 485 1
E 421 437 1
E 421 429 1
E 421 423 1
E 421 422 1
E 422 486 1
E 422 438 1
E 422 430 1
E 422 424 1
E 423 487 1
E 423 439 1
E 423 431 1
E 423 424 1
E 424 488 1
E 424 440 1
E 424 432 1
E 425 489 1
E 425 441 1
E 425 429 1
E 425 427 1
E 425 426 1
E 426 490 1
E 426 442 1
E 426 430 1
E 426 428 1
E 427 491 1
E 427 443 1
E 427 431 1
E 427 428 1
E 428 492 1
E 428 444 1
E 428 432 1
E 429 493 1
E 429 445 1
E 429 431 1
E 429 430 1
E 430 494 1
E 430 446 1
E 430 432 1
E 431 495 1
E 431 447 1
E 431 432 1
E 432 496 1
E 432 448 1
E 433 497 1
E 433 441 1
E 433 437 1
E 433 435 1
E 433 434 1
E 434 498 1
E 434 442 1
E 434 438 1
E 434 436 1
E 435 499 1
E 435 443 1
E 435 439 1
E 435 436 1
E 436 500 1
E 436 444 1
E 436 440 1
E 437 501 1
E 437 445 1
E 437 439 1
E 437 438 1
E 438 502 1
E 438 446 1
E 438 440 1
E 439 503 1
E 439 447 1
E 439 440 1
E 440 504 1
E 440 448 1
E 441 505 1
E 441 445 1
E 441 443 1
E 441 442 1
E 442 506 1
E 442 446 1
E 442 444 1
E 443 507 1
E 443 447 1
E 443 444 1
E 444 508 1
E 444 448 1
E 445 509 1
E 445 447 1
E 445 446 1
E 446 510 1
E 446 448 1
E 447 511 1
E 447 448 1
E 448 512 1
E 449 481 1
E 449 465 1
E 449 457 1
E 449 453 1
E 449 451 1
E 449 450 1
E 450 482 1
E 450 466 1
E 450 458 1
E 450 454 1
E 450 452 1
E 451 483 1
E 451 467 1
E 451 459 1
E 451 455 1
E 451 452 1
E 452 484 1
E 452 468 1
E 452 460 1
E 452 456 1
E 453 485 1
E 453 469 1
E 453 461 1
E 453 455 1
E 453 454 1
E 454 486 1
E 454 470 1
E 454 462 1
E 454 456 1
E 455 487 1
E 455 471 1
E 455 463 1
E 455 456 1
E 456 488 1
E 456 472 1
E 456 464 1
E 457 489 1
E 457 473 1
E 457 461 1
E 457 459 1
E 457 458 1
E 458 490 1
E 458 474 1
E 458 462 1
E 458 460 1
E 459 491 1
E 459 475 1
E 459 463 1
E 459 460 1
E 460 492 1
E 460 476 1
E 460 464 1
E 461 493 1
E 461 477 1
E 461 463 1
E 461 462 1
E 462 494 1
E 462 478 1
E 462 464 1
E 463 495 1
E 463 479 1
E 463 464 1
E 464 496 1
E 464 480 1
E 465 497 1
E 465 473 1
E 465 469 1
E 465 467 1
E 465 466 1
E 466 498 1
E 466 474 1
E 466 470 1
E 466 468 1
E 467 499 1
E 467 475 1
E 467 471 1
E 467 468 1
E 468 500 1
E 468 476 1
E 468 472 1
E 469 501 1
E 469 477 1
E 469 471 1
E 469 470 1
E 470 502 1
E 470 478 1
E 470 472 1
E 471 503 1
E 471 479 1
E 471 472 1
E 472 504 1
E 472 480 1
E 473 505 1
E 473 477 1
E 473 475 1
E 473 474 1
E 474 506 1
E 474 478 1
E 474 476 1
E 475 507 1
E 475 479 1
E 475 476 1
E 476 508 1
E 476 480 1
E 477 509 1
E 477 479 1
E 477 478 1
E 478 510 1
E 478 480 1
E 479 511 1
E 479 480 1
E 480 512 1
E 481 497 1
E 481 489 1
E 481 485 1
E 481 483 1
E 481 482 1
E 482 498 1
E 482 490 1
E 482 486 1
E 482 484 1
E 483 499 1
E 483 491 1
E 483 487 1
E 483 484 1
E 484 500 1
E 484 492 1
E 484 488 1
E 485 501 1
E 485 493 1
E 485 487 1
E 485 486 1
E 486 502 1
E 486 494 1
E 486 488 1
E 487 503 1
E 487 495 1
E 487 488 1
E 488 504 1
E 488 496 1
E 489 505 1
E 489 493 1
E 489 491 1
E 489 490 1
E 490 506 1
E 490 494 1
E 490 492 1
E 491 507 1
E 491 495 1
E 491 492 1
E 492 508 1
E 492 496 1
E 493 509 1
E 493 495 1
E 493 494 1
E 494 510 1
E 494 496 1
E 495 511 1
E 495 496 1
E 496 512 1
E 497 505 1
E 497 501 1
E 497 499 1
E 497 498 1
E 498 506 1
E 498 502 1
E 498 500 1
E 499 507 1
E 499 503 1
E 499 500 1
E 500 508 1
E 500 504 1
E 501 509 1
E 501 503 1
E 501 502 1
E 502 510 1
E 502 504 1
E 503 511 1
E 503 504 1
E 504 512 1
E 505 509 1
E 505 507 1
E 505 506 1
E 506 510 1
E 506 508 1
E 507 511 1
E 507 508 1
E 508 512 1
E 509 511 1
E 509 510 1
E 510 512 1
E 511 512 1
END

SECTION Terminals
Terminals 256
T 1
T 4
T 6
T 7
T 10
T 11
T 13
T 16
T 18
T 19
T 21
T 24
T 25
T 28
T 30
T 31
T 34
T 35
T 37
T 40
T 41
T 44
T 46
T 47
T 49
T 52
T 54
T 55
T 58
T 59
T 61
T 64
T 66
T 67
T 69
T 72
T 73
T 76
T 78
T 79
T 81
T 84
T 86
T 87
T 90
T 91
T 93
T 96
T 97
T 100
T 102
T 103
T 106
T 107
T 109
T 112
T 114
T 115
T 117
T 120
T 121
T 124
T 126
T 127
T 130
T 131
T 133
T 136
T 137
T 140
T 142
T 143
T 145
T 148
T 150
T 151
T 154
T 155
T 157
T 160
T 161
T 164
T 166
T 167
T 170
T 171
T 173
T 176
T 178
T 179
T 181
T 184
T 185
T 188
T 190
T 191
T 193
T 196
T 198
T 199
T 202
T 203
T 205
T 208
T 210
T 211
T 213
T 216
T 217
T 220
T 222
T 223
T 226
T 227
T 229
T 232
T 233
T 236
T 238
T 239
T 241
T 244
T 246
T 247
T 250
T 251
T 253
T 256
T 258
T 259
T 261
T 264
T 265
T 268
T 270
T 271
T 273
T 276
T 278
T 279
T 282
T 283
T 285
T 288
T 289
T 292
T 294
T 295
T 298
T 299
T 301
T 304
T 306
T 307
T 309
T 312
T 313
T 316
T 318
T 319
T 321
T 324
T 326
T 327
T 330
T 331
T 333
T 336
T 338
T 339
T 341
T 344
T 345
T 348
T 350
T 351
T 354
T 355
T 357
T 360
T 361
T 364
T 366
T 367
T 369
T 372
T 374
T 375
T 378
T 379
T 381
T 384
T 385
T 388
T 390
T 391
T 394
T 395
T 397
T 400
T 402
T 403
T 405
T 408
T 409
T 412
T 414
T 415
T 418
T 419
T 421
T 424
T 425
T 428
T 430
T 431
T 433
T 436
T 438
T 439
T 442
T 443
T 445
T 448
T 450
T 451
T 453
T 456
T 457
T 460
T 462
T 463
T 465
T 468
T 470
T 471
T 474
T 475
T 477
T 480
T 481
T 484
T 486
T 487
T 490
T 491
T 493
T 496
T 498
T 499
T 501
T 504
T 505
T 508
T 510
T 511
END

EOF
